c File: instances/28_0.30_2.col
c
c Description: Random graph of size 28 vertices and P(0.3) of edges between any two vertices.
p col 28 378
e 1 5
e 1 6
e 1 8
e 1 10
e 1 12
e 1 16
e 1 18
e 1 20
e 1 24
e 2 9
e 2 13
e 2 17
e 2 18
e 2 20
e 2 26
e 2 28
e 3 4
e 3 6
e 3 9
e 3 10
e 3 13
e 3 14
e 3 21
e 4 7
e 4 8
e 4 12
e 4 18
e 4 19
e 4 20
e 4 21
e 4 23
e 4 24
e 5 10
e 5 15
e 5 19
e 5 22
e 5 27
e 6 9
e 6 11
e 6 22
e 6 24
e 6 27
e 6 28
e 7 9
e 7 16
e 7 19
e 8 10
e 8 13
e 8 14
e 8 15
e 8 17
e 8 20
e 8 21
e 8 22
e 9 19
e 9 22
e 10 14
e 10 16
e 10 17
e 10 19
e 10 21
e 11 16
e 11 25
e 12 24
e 13 18
e 13 20
e 13 21
e 13 25
e 14 20
e 14 25
e 14 27
e 15 17
e 15 28
e 16 18
e 16 19
e 16 23
e 17 18
e 17 22
e 17 23
e 18 27
e 19 20
e 19 21
e 19 22
e 19 23
e 19 24
e 19 25
e 19 26
e 19 27
e 21 24
e 21 26
e 22 23
e 22 24
e 22 25
e 22 26
e 22 28
e 23 26
e 23 28
e 24 25
e 24 28
e 25 26
e 25 27
e 26 27
e 27 28